100
100
92 11
473 9
616 9
839 16
608 25
865 6
759 17
940 10
160 8
243 9
302 18
973 3
167 5
411 21
375 11
279 16
397 22
21 19
656 18
476 5
318 13
991 13
909 19
145 19
732 10
851 11
924 1
16 15
513 8
541 5
52 2
254 15
856 19
706 11
200 7
378 8
920 19
290 5
977 14
846 15
191 23
378 11
156 16
795 17
624 18
450 17
715 8
461 15
132 12
786 5
609 2
643 4
553 14
354 23
34 1
988 24
354 21
459 5
757 15
661 20
236 6
512 23
836 7
147 16
777 25
892 4
199 23
650 17
761 14
326 14
672 17
852 20
809 22
198 4
753 14
673 17
429 22
780 22
719 20
864 16
448 1
644 22
421 15
211 25
942 10
815 1
720 15
60 14
342 22
12 15
524 16
381 5
117 19
742 25
295 13
367 3
378 5
117 1
302 25
129 9
